Au                                      
   1.00000000000000     
    16.5000000000000000    0.0000000000000000    0.0000000000000000
     0.0000000000000000    8.7504464171835252    0.0000000000000000
     0.0000000000000000    0.0000000000000000   44.5840773619725468
   Au
   126
Selective dynamics
Direct
  0.0000000000000000  0.0000000000000000  0.3364429834045239   F   F   F
  0.2500000000000000  0.0000000000000000  0.3364429834045239   F   F   F
  0.5000000000000000  0.0000000000000000  0.3364429834045239   F   F   F
  0.7500000000000000  0.0000000000000000  0.3364429834045239   F   F   F
  0.0000000000000000  0.3333333333333357  0.3364429834045239   F   F   F
  0.2500000000000000  0.3333333333333357  0.3364429834045239   F   F   F
  0.5000000000000000  0.3333333333333357  0.3364429834045239   F   F   F
  0.7500000000000000  0.3333333333333357  0.3364429834045239   F   F   F
  0.0000000000000000  0.6666666666666643  0.3364429834045239   F   F   F
  0.2500000000000000  0.6666666666666643  0.3364429834045239   F   F   F
  0.5000000000000000  0.6666666666666643  0.3364429834045239   F   F   F
  0.7500000000000000  0.6666666666666643  0.3364429834045239   F   F   F
  0.1250000000000000  0.1666666666666643  0.3691543867236149   F   F   F
  0.3750000000000000  0.1666666666666643  0.3691543867236149   F   F   F
  0.6250000000000000  0.1666666666666643  0.3691543867236149   F   F   F
  0.8750000000000000  0.1666666666666643  0.3691543867236149   F   F   F
  0.1250000000000000  0.5000000000000000  0.3691543867236149   F   F   F
  0.3750000000000000  0.5000000000000000  0.3691543867236149   F   F   F
  0.6250000000000000  0.5000000000000000  0.3691543867236149   F   F   F
  0.8750000000000000  0.5000000000000000  0.3691543867236149   F   F   F
  0.1250000000000000  0.8333333333333357  0.3691543867236149   F   F   F
  0.3750000000000000  0.8333333333333357  0.3691543867236149   F   F   F
  0.6250000000000000  0.8333333333333357  0.3691543867236149   F   F   F
  0.8750000000000000  0.8333333333333357  0.3691543867236149   F   F   F
  0.0000000000000000  0.0000000000000000  0.4018657900427129   F   F   F
  0.2500000000000000  0.0000000000000000  0.4018657900427129   F   F   F
  0.5000000000000000  0.0000000000000000  0.4018657900427129   F   F   F
  0.7500000000000000  0.0000000000000000  0.4018657900427129   F   F   F
  0.0000000000000000  0.3333333333333357  0.4018657900427129   F   F   F
  0.2500000000000000  0.3333333333333357  0.4018657900427129   F   F   F
  0.5000000000000000  0.3333333333333357  0.4018657900427129   F   F   F
  0.7500000000000000  0.3333333333333357  0.4018657900427129   F   F   F
  0.0000000000000000  0.6666666666666643  0.4018657900427129   F   F   F
  0.2500000000000000  0.6666666666666643  0.4018657900427129   F   F   F
  0.5000000000000000  0.6666666666666643  0.4018657900427129   F   F   F
  0.7500000000000000  0.6666666666666643  0.4018657900427129   F   F   F
  0.1250271998944923  0.1666666666666643  0.4346006215499879   T   T   T
  0.3749728001055078  0.1666666666666643  0.4346006215499879   T   T   T
  0.6250271998944924  0.1666666666666643  0.4346006215499879   T   T   T
  0.8749728001055076  0.1666666666666643  0.4346006215499879   T   T   T
  0.1250271998944923  0.5000000000000000  0.4346006215499879   T   T   T
  0.3749728001055078  0.5000000000000000  0.4346006215499879   T   T   T
  0.6250271998944924  0.5000000000000000  0.4346006215499879   T   T   T
  0.8749728001055076  0.5000000000000000  0.4346006215499879   T   T   T
  0.1250271998944923  0.8333333333333357  0.4346006215499879   T   T   T
  0.3749728001055078  0.8333333333333357  0.4346006215499879   T   T   T
  0.6250271998944924  0.8333333333333357  0.4346006215499879   T   T   T
  0.8749728001055076  0.8333333333333357  0.4346006215499879   T   T   T
  0.0000000000000000  0.0000000000000000  0.4674215374179503   T   T   T
  0.2500000000000000 -0.0000000000000000  0.4674935217731240   T   T   T
  0.5000000000000000 -0.0000000000000000  0.4674215374179503   T   T   T
  0.7500000000000000 -0.0000000000000000  0.4674935217731240   T   T   T
  0.0000000000000000  0.3333333333333357  0.4674215374179503   T   T   T
  0.2500000000000000  0.3333333333333357  0.4674935217731240   T   T   T
  0.5000000000000000  0.3333333333333357  0.4674215374179503   T   T   T
  0.7500000000000000  0.3333333333333357  0.4674935217731240   T   T   T
  0.0000000000000000  0.6666666666666643  0.4674215374179503   T   T   T
  0.2500000000000000  0.6666666666666643  0.4674935217731240   T   T   T
  0.5000000000000000  0.6666666666666643  0.4674215374179503   T   T   T
  0.7500000000000000  0.6666666666666643  0.4674935217731240   T   T   T
  0.1246101089182724  0.1666666666666643  0.4999722150636107   T   T   T
  0.3753898910817276  0.1666666666666643  0.4999722150636107   T   T   T
  0.6246101089182722  0.1666666666666643  0.4999722150636107   T   T   T
  0.8753898910817278  0.1666666666666643  0.4999722150636107   T   T   T
  0.1246101089182724  0.5000000000000000  0.4999722150636107   T   T   T
  0.3753898910817276  0.5000000000000000  0.4999722150636107   T   T   T
  0.6246101089182722  0.5000000000000000  0.4999722150636107   T   T   T
  0.8753898910817278  0.5000000000000000  0.4999722150636107   T   T   T
  0.1246101089182724  0.8333333333333357  0.4999722150636107   T   T   T
  0.3753898910817276  0.8333333333333357  0.4999722150636107   T   T   T
  0.6246101089182722  0.8333333333333357  0.4999722150636107   T   T   T
  0.8753898910817278  0.8333333333333357  0.4999722150636107   T   T   T
  0.0000000000000000  0.0000000000000000  0.5330529134604409   T   T   T
  0.2500000000000000 -0.0000000000000000  0.5323501901588261   T   T   T
  0.5000000000000000 -0.0000000000000000  0.5330529134604409   T   T   T
  0.7500000000000000 -0.0000000000000000  0.5323501901588261   T   T   T
  0.0000000000000000  0.3333333333333357  0.5330529134604409   T   T   T
  0.2500000000000000  0.3333333333333357  0.5323501901588261   T   T   T
  0.5000000000000000  0.3333333333333357  0.5330529134604409   T   T   T
  0.7500000000000000  0.3333333333333357  0.5323501901588261   T   T   T
  0.0000000000000000  0.6666666666666643  0.5330529134604409   T   T   T
  0.2500000000000000  0.6666666666666643  0.5323501901588261   T   T   T
  0.5000000000000000  0.6666666666666643  0.5330529134604409   T   T   T
  0.7500000000000000  0.6666666666666643  0.5323501901588261   T   T   T
  0.1214585250246968  0.1666666666666643  0.5655987940632722   T   T   T
  0.3785414749753031  0.1666666666666643  0.5655987940632722   T   T   T
  0.6214585250246969  0.1666666666666643  0.5655987940632722   T   T   T
  0.8785414749753031  0.1666666666666643  0.5655987940632722   T   T   T
  0.1214585250246968  0.5000000000000000  0.5655987940632722   T   T   T
  0.3785414749753031  0.5000000000000000  0.5655987940632722   T   T   T
  0.6214585250246969  0.5000000000000000  0.5655987940632722   T   T   T
  0.8785414749753031  0.5000000000000000  0.5655987940632722   T   T   T
  0.1214585250246968  0.8333333333333357  0.5655987940632722   T   T   T
  0.3785414749753031  0.8333333333333357  0.5655987940632722   T   T   T
  0.6214585250246969  0.8333333333333357  0.5655987940632722   T   T   T
  0.8785414749753031  0.8333333333333357  0.5655987940632722   T   T   T
  0.0000000000000000  0.0000000000000000  0.6019459883981756   T   T   T
  0.2500000000000000  0.0000000000000000  0.5953176107363729   T   T   T
  0.5000000000000000  0.0000000000000000  0.6019459883981756   T   T   T
  0.7500000000000000  0.0000000000000000  0.5953176107363729   T   T   T
  0.0000000000000000  0.3333333333333357  0.6019459883981756   T   T   T
  0.2500000000000000  0.3333333333333357  0.5953176107363729   T   T   T
  0.5000000000000000  0.3333333333333357  0.6019459883981756   T   T   T
  0.7500000000000000  0.3333333333333357  0.5953176107363729   T   T   T
  0.0000000000000000  0.6666666666666643  0.6019459883981756   T   T   T
  0.2500000000000000  0.6666666666666643  0.5953176107363729   T   T   T
  0.5000000000000000  0.6666666666666643  0.6019459883981756   T   T   T
  0.7500000000000000  0.6666666666666643  0.5953176107363729   T   T   T
  0.1229339420000937  0.1666666666666643  0.6316202688025924   T   T   T
  0.3770660579999062  0.1666666666666643  0.6316202688025924   T   T   T
  0.6229339420000939  0.1666666666666643  0.6316202688025924   T   T   T
  0.8770660579999061  0.1666666666666643  0.6316202688025924   T   T   T
  0.1229339420000937  0.5000000000000000  0.6316202688025924   T   T   T
  0.3770660579999062  0.5000000000000000  0.6316202688025924   T   T   T
  0.6229339420000939  0.5000000000000000  0.6316202688025924   T   T   T
  0.8770660579999061  0.5000000000000000  0.6316202688025924   T   T   T
  0.1229339420000937  0.8333333333333357  0.6316202688025924   T   T   T
  0.3770660579999062  0.8333333333333357  0.6316202688025924   T   T   T
  0.6229339420000939  0.8333333333333357  0.6316202688025924   T   T   T
  0.8770660579999061  0.8333333333333357  0.6316202688025924   T   T   T
  0.2500000000000000  0.0000000000000000  0.6582158290006490   T   T   T
  0.7500000000000000 -0.0000000000000000  0.6582158290006490   T   T   T
  0.2500000000000000  0.3333333333333357  0.6582158290006490   T   T   T
  0.7500000000000000  0.3333333333333357  0.6582158290006490   T   T   T
  0.2500000000000000  0.6666666666666643  0.6582158290006490   T   T   T
  0.7500000000000000  0.6666666666666643  0.6582158290006490   T   T   T
 
  0.00000000E+00  0.00000000E+00  0.00000000E+00
  0.00000000E+00  0.00000000E+00  0.00000000E+00
  0.00000000E+00  0.00000000E+00  0.00000000E+00
  0.00000000E+00  0.00000000E+00  0.00000000E+00
  0.00000000E+00  0.00000000E+00  0.00000000E+00
  0.00000000E+00  0.00000000E+00  0.00000000E+00
  0.00000000E+00  0.00000000E+00  0.00000000E+00
  0.00000000E+00  0.00000000E+00  0.00000000E+00
  0.00000000E+00  0.00000000E+00  0.00000000E+00
  0.00000000E+00  0.00000000E+00  0.00000000E+00
  0.00000000E+00  0.00000000E+00  0.00000000E+00
  0.00000000E+00  0.00000000E+00  0.00000000E+00
  0.00000000E+00  0.00000000E+00  0.00000000E+00
  0.00000000E+00  0.00000000E+00  0.00000000E+00
  0.00000000E+00  0.00000000E+00  0.00000000E+00
  0.00000000E+00  0.00000000E+00  0.00000000E+00
  0.00000000E+00  0.00000000E+00  0.00000000E+00
  0.00000000E+00  0.00000000E+00  0.00000000E+00
  0.00000000E+00  0.00000000E+00  0.00000000E+00
  0.00000000E+00  0.00000000E+00  0.00000000E+00
  0.00000000E+00  0.00000000E+00  0.00000000E+00
  0.00000000E+00  0.00000000E+00  0.00000000E+00
  0.00000000E+00  0.00000000E+00  0.00000000E+00
  0.00000000E+00  0.00000000E+00  0.00000000E+00
  0.00000000E+00  0.00000000E+00  0.00000000E+00
  0.00000000E+00  0.00000000E+00  0.00000000E+00
  0.00000000E+00  0.00000000E+00  0.00000000E+00
  0.00000000E+00  0.00000000E+00  0.00000000E+00
  0.00000000E+00  0.00000000E+00  0.00000000E+00
  0.00000000E+00  0.00000000E+00  0.00000000E+00
  0.00000000E+00  0.00000000E+00  0.00000000E+00
  0.00000000E+00  0.00000000E+00  0.00000000E+00
  0.00000000E+00  0.00000000E+00  0.00000000E+00
  0.00000000E+00  0.00000000E+00  0.00000000E+00
  0.00000000E+00  0.00000000E+00  0.00000000E+00
  0.00000000E+00  0.00000000E+00  0.00000000E+00
  0.00000000E+00  0.00000000E+00  0.00000000E+00
  0.00000000E+00  0.00000000E+00  0.00000000E+00
  0.00000000E+00  0.00000000E+00  0.00000000E+00
  0.00000000E+00  0.00000000E+00  0.00000000E+00
  0.00000000E+00  0.00000000E+00  0.00000000E+00
  0.00000000E+00  0.00000000E+00  0.00000000E+00
  0.00000000E+00  0.00000000E+00  0.00000000E+00
  0.00000000E+00  0.00000000E+00  0.00000000E+00
  0.00000000E+00  0.00000000E+00  0.00000000E+00
  0.00000000E+00  0.00000000E+00  0.00000000E+00
  0.00000000E+00  0.00000000E+00  0.00000000E+00
  0.00000000E+00  0.00000000E+00  0.00000000E+00
  0.00000000E+00  0.00000000E+00  0.00000000E+00
  0.00000000E+00  0.00000000E+00  0.00000000E+00
  0.00000000E+00  0.00000000E+00  0.00000000E+00
  0.00000000E+00  0.00000000E+00  0.00000000E+00
  0.00000000E+00  0.00000000E+00  0.00000000E+00
  0.00000000E+00  0.00000000E+00  0.00000000E+00
  0.00000000E+00  0.00000000E+00  0.00000000E+00
  0.00000000E+00  0.00000000E+00  0.00000000E+00
  0.00000000E+00  0.00000000E+00  0.00000000E+00
  0.00000000E+00  0.00000000E+00  0.00000000E+00
  0.00000000E+00  0.00000000E+00  0.00000000E+00
  0.00000000E+00  0.00000000E+00  0.00000000E+00
  0.00000000E+00  0.00000000E+00  0.00000000E+00
  0.00000000E+00  0.00000000E+00  0.00000000E+00
  0.00000000E+00  0.00000000E+00  0.00000000E+00
  0.00000000E+00  0.00000000E+00  0.00000000E+00
  0.00000000E+00  0.00000000E+00  0.00000000E+00
  0.00000000E+00  0.00000000E+00  0.00000000E+00
  0.00000000E+00  0.00000000E+00  0.00000000E+00
  0.00000000E+00  0.00000000E+00  0.00000000E+00
  0.00000000E+00  0.00000000E+00  0.00000000E+00
  0.00000000E+00  0.00000000E+00  0.00000000E+00
  0.00000000E+00  0.00000000E+00  0.00000000E+00
  0.00000000E+00  0.00000000E+00  0.00000000E+00
  0.00000000E+00  0.00000000E+00  0.00000000E+00
  0.00000000E+00  0.00000000E+00  0.00000000E+00
  0.00000000E+00  0.00000000E+00  0.00000000E+00
  0.00000000E+00  0.00000000E+00  0.00000000E+00
  0.00000000E+00  0.00000000E+00  0.00000000E+00
  0.00000000E+00  0.00000000E+00  0.00000000E+00
  0.00000000E+00  0.00000000E+00  0.00000000E+00
  0.00000000E+00  0.00000000E+00  0.00000000E+00
  0.00000000E+00  0.00000000E+00  0.00000000E+00
  0.00000000E+00  0.00000000E+00  0.00000000E+00
  0.00000000E+00  0.00000000E+00  0.00000000E+00
  0.00000000E+00  0.00000000E+00  0.00000000E+00
  0.00000000E+00  0.00000000E+00  0.00000000E+00
  0.00000000E+00  0.00000000E+00  0.00000000E+00
  0.00000000E+00  0.00000000E+00  0.00000000E+00
  0.00000000E+00  0.00000000E+00  0.00000000E+00
  0.00000000E+00  0.00000000E+00  0.00000000E+00
  0.00000000E+00  0.00000000E+00  0.00000000E+00
  0.00000000E+00  0.00000000E+00  0.00000000E+00
  0.00000000E+00  0.00000000E+00  0.00000000E+00
  0.00000000E+00  0.00000000E+00  0.00000000E+00
  0.00000000E+00  0.00000000E+00  0.00000000E+00
  0.00000000E+00  0.00000000E+00  0.00000000E+00
  0.00000000E+00  0.00000000E+00  0.00000000E+00
  0.00000000E+00  0.00000000E+00  0.00000000E+00
  0.00000000E+00  0.00000000E+00  0.00000000E+00
  0.00000000E+00  0.00000000E+00  0.00000000E+00
  0.00000000E+00  0.00000000E+00  0.00000000E+00
  0.00000000E+00  0.00000000E+00  0.00000000E+00
  0.00000000E+00  0.00000000E+00  0.00000000E+00
  0.00000000E+00  0.00000000E+00  0.00000000E+00
  0.00000000E+00  0.00000000E+00  0.00000000E+00
  0.00000000E+00  0.00000000E+00  0.00000000E+00
  0.00000000E+00  0.00000000E+00  0.00000000E+00
  0.00000000E+00  0.00000000E+00  0.00000000E+00
  0.00000000E+00  0.00000000E+00  0.00000000E+00
  0.00000000E+00  0.00000000E+00  0.00000000E+00
  0.00000000E+00  0.00000000E+00  0.00000000E+00
  0.00000000E+00  0.00000000E+00  0.00000000E+00
  0.00000000E+00  0.00000000E+00  0.00000000E+00
  0.00000000E+00  0.00000000E+00  0.00000000E+00
  0.00000000E+00  0.00000000E+00  0.00000000E+00
  0.00000000E+00  0.00000000E+00  0.00000000E+00
  0.00000000E+00  0.00000000E+00  0.00000000E+00
  0.00000000E+00  0.00000000E+00  0.00000000E+00
  0.00000000E+00  0.00000000E+00  0.00000000E+00
  0.00000000E+00  0.00000000E+00  0.00000000E+00
  0.00000000E+00  0.00000000E+00  0.00000000E+00
  0.00000000E+00  0.00000000E+00  0.00000000E+00
  0.00000000E+00  0.00000000E+00  0.00000000E+00
  0.00000000E+00  0.00000000E+00  0.00000000E+00
  0.00000000E+00  0.00000000E+00  0.00000000E+00
  0.00000000E+00  0.00000000E+00  0.00000000E+00
  0.00000000E+00  0.00000000E+00  0.00000000E+00
